
******************************************************************************
This program contains Ipopt, a library for large-scale nonlinear optimization.
 Ipopt is released as open source code under the Eclipse Public License (EPL).
         For more information visit http://projects.coin-or.org/Ipopt
******************************************************************************

NOTE: You are using Ipopt by default with the MUMPS linear solver.
      Other linear solvers might be more efficient (see Ipopt documentation).


This is Ipopt version trunk, running with linear solver mumps.

Number of nonzeros in equality constraint Jacobian...:   139399
Number of nonzeros in inequality constraint Jacobian.:        0
Number of nonzeros in Lagrangian Hessian.............:        0

Total number of variables............................:      597
                     variables with only lower bounds:        0
                variables with lower and upper bounds:      597
                     variables with only upper bounds:        0
Total number of equality constraints.................:      401
Total number of inequality constraints...............:        1
        inequality constraints with only lower bounds:        0
   inequality constraints with lower and upper bounds:        1
        inequality constraints with only upper bounds:        0

iter    objective    inf_pr   inf_du lg(mu)  ||d||  lg(rg) alpha_du alpha_pr  ls
   0 9.9999900e+017 4.68e-001 1.00e+012   0.0 0.00e+000    -  0.00e+000 0.00e+000   0
   1 5.8396891e+016 6.64e-001 5.84e+010  -0.0 6.55e-001    -  1.00e+000 9.42e-001f  1
   2 5.8297891e+014 3.17e-002 5.83e+008  -0.6 9.35e-002    -  1.00e+000 9.90e-001f  1
   3 4.8397891e+012 2.50e-004 4.84e+006  -2.3 5.87e-003    -  1.00e+000 9.92e-001f  1
   4 7.5495166e+005 7.00e-006 2.96e+001  -4.0 2.78e-003    -  1.00e+000 1.00e+000f  1
   5 -6.7723605e+005 3.14e-002 1.27e+003  -4.2 1.79e-001    -  1.00e+000 1.00e+000h  1
   6 -1.2212453e+005 4.33e-003 6.69e+000  -4.9 8.94e-002    -  1.00e+000 1.00e+000h  1
   7 -6.6613381e+004 8.16e-005 2.16e+002  -5.5 6.48e-002    -  1.00e+000 1.00e+000h  1
   8 2.2204460e+004 4.32e-007 3.17e+001  -6.9 1.25e-002    -  1.00e+000 1.00e+000H  1
   9 -7.7375183e+011 2.24e-003 1.31e+002  -8.1 4.34e-002    -  1.00e+000 1.00e+000f  1
iter    objective    inf_pr   inf_du lg(mu)  ||d||  lg(rg) alpha_du alpha_pr  ls
  10 -4.4408921e+004 1.92e-004 1.17e+000  -7.1 4.35e-002    -  1.00e+000 1.00e+000h  1
  11 0.0000000e+000 6.90e-006 1.43e+001  -7.2 3.79e-002    -  1.00e+000 1.00e+000H  1
  12 0.0000000e+000 3.37e-006 5.24e+000  -8.7 1.41e-002    -  1.00e+000 1.00e+000h  1
  13 0.0000000e+000 3.57e-006 7.18e-002 -10.1 9.32e-003    -  1.00e+000 1.00e+000h  1
  14 0.0000000e+000 1.76e-008 5.67e-005 -12.3 1.68e-003    -  1.00e+000 1.00e+000h  1
  15 0.0000000e+000 1.18e-006 3.13e-001 -12.3 1.58e-002    -  1.00e+000 1.00e+000h  1
  16 0.0000000e+000 2.74e-007 6.21e-002 -12.3 2.58e-003  -2.0 1.00e+000 1.00e+000h  1
  17 0.0000000e+000 1.07e-007 7.21e-005 -12.3 4.64e-003    -  1.00e+000 1.00e+000h  1
  18 0.0000000e+000 2.48e-008 5.00e-005 -12.3 1.07e-003    -  1.00e+000 1.00e+000h  1
  19 5.5511151e+003 1.17e-008 5.00e-005 -12.3 3.34e-003    -  1.00e+000 1.00e+000H  1
iter    objective    inf_pr   inf_du lg(mu)  ||d||  lg(rg) alpha_du alpha_pr  ls
  20 0.0000000e+000 1.47e-007 3.08e+001 -12.3 2.23e-003  -2.5 1.00e+000 1.00e+000h  1
  21 -7.4276252e+009 4.02e-006 9.70e+001 -12.3 1.25e-002    -  1.00e+000 1.00e+000f  1
  22 0.0000000e+000 8.70e-007 2.38e+001 -12.3 8.22e-003  -3.0 1.00e+000 1.00e+000h  1
  23 0.0000000e+000 8.03e-007 3.67e+001 -12.3 6.81e-003    -  1.00e+000 1.00e+000h  1
  24 5.5511151e+003 2.94e-007 5.78e+001 -12.3 6.49e-003    -  1.00e+000 1.00e+000H  1
  25 5.5511151e+003 1.03e-008 1.39e-004 -12.3 7.30e-003    -  1.00e+000 1.00e+000H  1
  26 -4.9960036e+005 1.91e-008 1.47e-004 -12.3 8.07e-003    -  1.00e+000 1.00e+000H  1
  27 5.5511151e+003 6.98e-009 2.69e-004 -12.3 8.63e-003  -2.5 1.00e+000 1.00e+000H  1
  28 0.0000000e+000 6.13e-007 6.37e+001 -12.3 4.45e-003    -  1.00e+000 1.00e+000h  1
  29 5.5511151e+003 2.98e-009 5.00e-005 -12.3 5.22e-003    -  1.00e+000 1.00e+000H  1
iter    objective    inf_pr   inf_du lg(mu)  ||d||  lg(rg) alpha_du alpha_pr  ls
  30 0.0000000e+000 7.38e-008 3.42e+001 -12.3 4.14e-003  -2.1 1.00e+000 1.00e+000h  1
  31 0.0000000e+000 1.29e-009 5.00e-005 -12.3 2.02e-002    -  1.00e+000 1.00e+000H  1
  32 0.0000000e+000 3.75e-007 1.85e+001 -12.3 9.40e-003  -2.6 1.00e+000 1.00e+000h  1
  33 5.5511151e+003 4.95e-009 6.13e-005 -12.3 3.21e-002    -  1.00e+000 1.00e+000H  1
  34 2.8310687e+005 4.38e-009 6.36e-003 -12.3 1.54e-001    -  1.00e+000 1.00e+000H  1
  35 -2.8865799e+005 2.53e-004 6.62e+001 -12.3 1.51e-001    -  1.00e+000 1.00e+000f  1
  36 0.0000000e+000 3.65e-007 3.70e+001 -12.3 1.71e-003    -  1.00e+000 1.00e+000h  1
  37 -5.4286897e+010 1.75e-003 1.35e+001 -12.3 1.12e-001    -  1.00e+000 1.00e+000f  1
  38 0.0000000e+000 6.43e-006 1.62e+001 -12.3 2.03e-002  -3.1 1.00e+000 1.00e+000h  1
  39 0.0000000e+000 1.63e-007 1.52e+001 -12.3 9.53e-002    -  1.00e+000 1.00e+000H  1
iter    objective    inf_pr   inf_du lg(mu)  ||d||  lg(rg) alpha_du alpha_pr  ls
  40 -3.8935521e+007 1.41e-006 1.64e+001 -12.3 5.85e-002    -  1.00e+000 1.00e+000H  1
  41 0.0000000e+000 7.46e-008 1.87e+000 -12.3 5.57e-002    -  1.00e+000 1.00e+000H  1
  42 0.0000000e+000 1.30e-008 3.52e+000 -12.3 1.80e-003    -  1.00e+000 1.00e+000H  1
  43 5.5511151e+003 5.45e-010 5.00e-005 -12.3 4.32e-003    -  1.00e+000 1.00e+000H  1
  44 0.0000000e+000 8.27e-008 1.93e+001 -12.3 2.54e-003  -2.2 1.00e+000 1.00e+000h  1
  45 0.0000000e+000 2.06e-008 3.05e+001 -12.3 6.63e-003    -  1.00e+000 1.00e+000H  1
  46 0.0000000e+000 4.99e-004 2.88e+001 -12.3 7.29e-001    -  4.51e-001 7.84e-002h  4
  47 3.3734204e+010 3.72e-002 1.37e+001 -12.3 5.46e-001    -  7.44e-001 7.44e-001s 22
  48 3.3734027e+010 3.72e-002 8.08e-001 -12.3 5.51e-002  -2.7 5.18e-006 5.18e-006s 22
  49r3.3734027e+010 3.72e-002 9.99e+002  -1.4 0.00e+000    -  0.00e+000 0.00e+000R  1
iter    objective    inf_pr   inf_du lg(mu)  ||d||  lg(rg) alpha_du alpha_pr  ls
  50r4.4410103e+010 9.25e-003 9.89e+000  -7.8 3.69e+001    -  1.00e+000 9.99e-004f  1
  51r4.2627592e+013 2.11e-004 1.17e-001  -6.2 9.33e-003    -  9.95e-001 9.80e-001f  1
  52r4.1206553e+011 2.13e-006 1.10e-003  -7.9 2.18e-004    -  9.91e-001 9.90e-001f  1
  53r-5.1109450e+009 1.16e-008 3.81e-007  -9.0 6.07e-005    -  1.00e+000 9.95e-001f  1
  54 2.5535130e+005 2.98e-009 3.99e-003  -7.5 1.14e-001  -3.2 7.57e-001 1.00e+000H  1
  55 2.3869795e+005 7.56e-007 1.65e+001  -7.7 3.99e-003    -  1.00e+000 1.00e+000h  1
  56 -2.1094237e+005 6.56e-004 2.64e+002  -7.7 1.06e-001    -  1.00e+000 1.00e+000h  1
  57 5.5511151e+003 1.10e-005 1.19e+002  -7.7 1.30e-002    -  1.00e+000 1.00e+000h  1
  58 1.1102230e+004 4.05e-006 2.10e+001  -7.7 7.04e-003    -  1.00e+000 1.00e+000h  1
  59 5.5511151e+003 3.29e-006 3.71e+001  -7.7 1.15e-002    -  1.00e+000 1.00e+000h  1
iter    objective    inf_pr   inf_du lg(mu)  ||d||  lg(rg) alpha_du alpha_pr  ls
  60 5.5511151e+003 2.06e-006 5.80e+000  -7.7 1.80e-002    -  1.00e+000 1.00e+000h  1
  61 5.5511151e+003 1.13e-006 9.55e+000  -7.7 1.25e-002    -  1.00e+000 1.00e+000h  1
  62 5.5511151e+003 2.45e-006 3.35e+000  -7.7 1.45e-002    -  1.00e+000 1.00e+000h  1
  63 5.5511151e+003 1.07e-006 1.33e+000  -7.7 6.60e-003    -  1.00e+000 1.00e+000h  1
  64 5.5511151e+003 7.46e-007 3.38e+000  -7.7 4.15e-003    -  1.00e+000 1.00e+000h  1
  65 5.5511151e+003 1.27e-005 1.44e-001  -7.7 1.16e-002    -  1.00e+000 1.00e+000h  1
  66 2.7755576e+004 2.31e-008 8.15e+001  -7.7 1.77e-001    -  3.27e-001 1.00e+000H  1
  67r2.7755576e+004 2.31e-008 9.99e+002  -7.6 0.00e+000    -  0.00e+000 4.77e-007R 22
  68r2.7755576e+004 5.82e-009 2.70e-006  -9.0 2.31e-005    -  1.00e+000 9.90e-004f  1
  69 -2.2204460e+004 6.73e-004 3.31e+001 -11.6 8.69e-002    -  8.09e-001 1.00e+000h  1
iter    objective    inf_pr   inf_du lg(mu)  ||d||  lg(rg) alpha_du alpha_pr  ls
  70r-2.2204460e+004 6.73e-004 9.99e+002  -3.2 0.00e+000    -  0.00e+000 2.72e-007R 21
  71r2.7693636e+010 1.70e-004 2.08e+002  -5.7 6.74e-001    -  1.00e+000 9.90e-004f  1
  72r4.1770497e+013 1.22e-002 6.16e+001  -4.0 3.49e-001    -  1.00e+000 8.80e-001f  1
  73r5.6213647e+012 1.05e-002 5.58e-001  -4.5 2.64e-001    -  1.00e+000 9.92e-001f  1
  74r-1.2870698e+011 1.57e-004 5.75e-005  -5.6 3.15e-002    -  1.00e+000 1.00e+000h  1
  75 -7.7715612e+004 1.80e-004 6.89e+001  -9.9 1.74e-001  -2.7 1.00e+000 1.00e+000h  1
  76 -2.3314684e+005 5.29e-002 5.08e+001 -10.0 3.22e+000    -  4.24e-002 2.68e-001h  1
  77 -5.0549676e+009 5.79e-002 5.29e+001 -10.0 3.34e+001    -  1.49e-008 1.79e-002f  1
  78 -4.9215521e+009 5.72e-002 9.34e+001 -10.0 4.35e+000    -  6.57e-008 2.64e-002h  4
  79 -4.8818838e+009 5.67e-002 1.81e+001 -10.0 4.22e+000  -3.2 1.11e-001 8.12e-003h  1
iter    objective    inf_pr   inf_du lg(mu)  ||d||  lg(rg) alpha_du alpha_pr  ls
  80 -1.4140356e+009 2.58e-002 1.05e+003 -10.0 1.08e+000    -  2.78e-006 7.10e-001H  1
  81 -4.8745452e+008 7.53e-003 4.08e+002 -10.0 1.52e+000    -  2.13e-006 6.55e-001H  1
  82 3.3861802e+005 3.80e-006 2.05e+001 -10.0 3.50e-001    -  1.00e+000 1.00e+000H  1
  83 2.9420910e+005 9.50e-005 1.64e+002 -10.0 4.87e-001    -  3.59e-001 1.00e+000H  1
  84 -4.9852551e+011 3.35e-004 2.42e+001 -10.0 1.74e-001    -  1.00e+000 1.00e+000f  1
  85 5.5511151e+003 5.90e-005 5.15e+001  -9.7 2.12e-001    -  1.00e+000 1.00e+000H  1
  86 -1.1102230e+004 2.61e-005 3.01e+001  -9.8 3.07e-002    -  1.00e+000 1.00e+000h  1
  87 -1.1102230e+004 1.03e-005 1.88e+001  -9.8 2.14e-002    -  1.00e+000 1.00e+000h  1
  88 5.5511151e+003 2.42e-007 3.06e+001  -9.8 2.73e-003    -  1.00e+000 1.00e+000h  1
  89 0.0000000e+000 9.46e-006 9.81e+001  -9.8 1.71e-002    -  1.00e+000 1.00e+000h  1
iter    objective    inf_pr   inf_du lg(mu)  ||d||  lg(rg) alpha_du alpha_pr  ls
  90 0.0000000e+000 8.75e-006 1.00e+001  -9.8 1.10e-002    -  1.00e+000 1.00e+000h  1
  91 0.0000000e+000 1.11e-006 8.96e-002  -9.8 6.49e-003    -  1.00e+000 1.00e+000h  1
  92 0.0000000e+000 9.67e-008 1.39e+001  -9.8 1.34e-003    -  1.00e+000 1.00e+000h  1
  93 0.0000000e+000 6.16e-008 6.01e-002  -9.8 6.53e-004    -  1.00e+000 1.00e+000h  1
  94 0.0000000e+000 8.01e-006 5.33e+000  -9.8 5.34e-003    -  1.00e+000 1.00e+000h  1
  95 -5.8131278e+007 8.41e-005 3.95e+001  -9.8 9.59e-002    -  1.00e+000 1.00e+000H  1
  96 -1.1102230e+004 1.26e-005 4.31e+001  -9.8 2.66e-002  -1.9 1.00e+000 1.00e+000h  1
  97 0.0000000e+000 4.64e-008 4.06e+001  -9.8 5.22e-002    -  1.00e+000 1.00e+000H  1
  98 1.2767565e+005 9.36e-009 3.22e-003  -9.8 8.07e-002    -  1.00e+000 1.00e+000H  1
  99 0.0000000e+000 2.38e-008 2.59e+000  -9.8 7.01e-002    -  1.00e+000 1.00e+000F  1
iter    objective    inf_pr   inf_du lg(mu)  ||d||  lg(rg) alpha_du alpha_pr  ls
 100 5.5511151e+003 2.02e-009 1.64e-004  -9.8 3.05e-003    -  1.00e+000 1.00e+000H  1
 101 0.0000000e+000 8.33e-008 2.52e+001  -9.8 1.88e-003    -  1.00e+000 1.00e+000h  1
 102 0.0000000e+000 5.31e-008 1.87e+000  -9.8 6.71e-004    -  1.00e+000 1.00e+000h  1
 103 0.0000000e+000 8.66e-009 4.74e-004  -9.8 2.19e-002    -  1.00e+000 1.00e+000H  1
 104 5.5511151e+003 6.27e-010 5.04e-004  -9.8 2.45e-002    -  1.00e+000 1.00e+000H  1
 105 -1.1102230e+004 1.50e-004 2.36e+001 -13.0 3.20e-002    -  9.37e-001 1.00e+000h  1
 106 -2.2204460e+004 4.04e-004 1.26e+001 -13.0 4.22e-002    -  9.30e-001 1.00e+000h  1
 107 0.0000000e+000 6.18e-006 1.49e+001 -13.0 8.62e-003    -  1.00e+000 1.00e+000h  1
 108 0.0000000e+000 3.52e-007 1.33e+001 -13.0 6.41e-003    -  1.00e+000 1.00e+000h  1
 109 0.0000000e+000 2.70e-008 1.16e-002 -13.0 1.32e-003    -  1.00e+000 1.00e+000H  1
iter    objective    inf_pr   inf_du lg(mu)  ||d||  lg(rg) alpha_du alpha_pr  ls
 110 -1.9361179e+008 1.29e-003 6.85e+000 -13.0 7.40e-002    -  1.00e+000 1.00e+000f  1
 111 -9.6811448e+007 6.47e-004 5.78e+001 -13.0 1.04e-002  -2.4 1.00e+000 5.00e-001h  2
 112 -4.8405724e+007 3.95e-004 8.58e+000 -13.0 3.61e-002    -  1.00e+000 5.00e-001h  2
 113 -2.4202862e+007 1.97e-004 2.13e+001 -13.0 3.58e-002  -2.9 1.00e+000 5.00e-001h  2
 114 -1.2101431e+007 1.12e-004 8.25e+001 -13.0 1.60e-002    -  1.00e+000 5.00e-001h  2
 115 0.0000000e+000 1.40e-007 1.21e+002 -13.0 4.23e-002    -  1.00e+000 1.00e+000H  1
 116 5.5511151e+003 4.19e-009 5.13e-004 -13.0 5.72e-002    -  1.00e+000 1.00e+000H  1
 117 -1.1102230e+004 2.08e-005 1.69e+001 -13.0 2.76e-002  -3.4 1.00e+000 1.00e+000h  1
 118 -1.1102230e+004 1.62e-005 5.54e+001 -13.0 2.70e-002    -  1.00e+000 1.00e+000h  1
 119 -1.1102230e+004 1.22e-005 4.10e+001 -13.0 2.63e-003    -  1.00e+000 2.50e-001h  3
iter    objective    inf_pr   inf_du lg(mu)  ||d||  lg(rg) alpha_du alpha_pr  ls
 120 -1.1102230e+004 9.23e-006 2.97e+001 -13.0 2.53e-003    -  1.00e+000 2.50e-001h  3
 121 5.5511151e+003 7.81e-010 5.76e-004 -13.0 3.47e-002    -  1.00e+000 1.00e+000H  1
 122 0.0000000e+000 1.13e-007 3.17e+001 -13.0 1.41e-002    -  1.00e+000 1.00e+000H  1
 123 5.5511151e+003 2.78e-010 5.67e-004 -13.0 2.19e-002    -  1.00e+000 1.00e+000H  1
 124 0.0000000e+000 1.89e-005 1.75e+001 -12.3 1.05e-002    -  1.00e+000 1.00e+000h  1
 125 0.0000000e+000 2.27e-006 7.01e-001 -12.3 3.55e-003    -  1.00e+000 1.00e+000h  1
 126 0.0000000e+000 6.15e-007 1.09e+000 -12.3 1.89e-003    -  1.00e+000 1.00e+000h  1
 127 0.0000000e+000 6.85e-008 3.41e-001 -12.3 7.28e-004    -  1.00e+000 1.00e+000h  1
 128 0.0000000e+000 2.53e-008 5.00e-005 -12.3 5.24e-004    -  1.00e+000 1.00e+000h  1
 129 0.0000000e+000 1.71e-010 5.00e-005 -12.3 1.31e-003    -  1.00e+000 1.00e+000H  1
iter    objective    inf_pr   inf_du lg(mu)  ||d||  lg(rg) alpha_du alpha_pr  ls
 130 0.0000000e+000 5.67e-007 1.96e-002 -12.3 2.71e-003    -  1.00e+000 1.00e+000h  1
 131 0.0000000e+000 6.86e-008 2.91e-004 -12.3 2.43e-002    -  1.00e+000 1.00e+000H  1
 132 0.0000000e+000 1.12e-008 2.59e-004 -12.3 9.76e-003  -3.8 1.00e+000 1.00e+000H  1
 133 0.0000000e+000 6.86e-011 1.11e-004 -12.3 1.22e-002    -  1.00e+000 1.00e+000H  1
 134 0.0000000e+000 2.39e-012 2.16e-004 -12.3 5.77e-003    -  1.00e+000 1.00e+000H  1
 135 0.0000000e+000 2.95e-007 5.00e-005 -12.3 5.25e-003    -  1.00e+000 1.00e+000h  1
 136 0.0000000e+000 9.48e-009 5.00e-005 -12.3 6.97e-004    -  1.00e+000 1.00e+000h  1
 137 0.0000000e+000 7.47e-012 5.00e-005 -12.3 3.49e-004    -  1.00e+000 1.00e+000H  1
 138 0.0000000e+000 2.12e-009 5.00e-005 -12.3 2.56e-003    -  1.00e+000 1.00e+000H  1
 139 0.0000000e+000 6.36e-010 8.76e-005 -12.3 5.89e-003    -  1.00e+000 1.00e+000H  1
iter    objective    inf_pr   inf_du lg(mu)  ||d||  lg(rg) alpha_du alpha_pr  ls
 140 0.0000000e+000 3.64e-007 8.49e-005 -12.3 4.59e-003    -  1.00e+000 1.00e+000h  1

Number of Iterations....: 140

                                   (scaled)                 (unscaled)
Objective...............:  0.0000000000000000e+000   0.0000000000000000e+000
Dual infeasibility......:  8.4867201037633737e-005   8.4867201037633731e+003
Constraint violation....:  3.6368496996175282e-007   3.6368496996175282e-007
Complementarity.........:  4.9999999999999999e-013   4.9999999999999996e-005
Overall NLP error.......:  3.6368496996175282e-007   8.4867201037633731e+003


Number of objective function evaluations             = 309
Number of objective gradient evaluations             = 135
Number of equality constraint evaluations            = 309
Number of inequality constraint evaluations          = 309
Number of equality constraint Jacobian evaluations   = 144
Number of inequality constraint Jacobian evaluations = 144
Number of Lagrangian Hessian evaluations             = 0
Total CPU secs in IPOPT (w/o function evaluations)   =     12.861
Total CPU secs in NLP function evaluations           =     21.952

EXIT: Solved To Acceptable Level.
